48 521
1 2 6 10 11 13 14 17 19 20 24 25 27 28 29 31 33 34 37 39 42 43 47
0 8 9 10 13 15 21 25 26 31 37 38 43 45 46 47
0 4 5 7 8 9 10 11 13 15 16 17 18 23 26 30 35 38 42 43 46 47
5 6 9 10 11 13 14 16 17 19 20 22 26 27 29 31 34 36 37 38 39 42 44 45
2 5 7 8 11 15 16 17 20 21 23 24 30 34 36 37 39 40 42 44 46
2 3 4 8 15 20 23 25 26 29 31 32 35 36 37 44 45 47
0 3 9 12 17 19 20 21 22 23 25 29 30 32 33 35 36 40 46 47
2 4 8 9 12 16 18 21 25 27 28 29 30 31 40 41 46
1 2 4 5 7 9 12 14 15 16 17 20 21 24 26 27 33 36 37 38 39 42 43 45
1 2 3 6 7 8 10 11 12 13 15 16 19 20 22 25 30 33 35 38 39 40 43 44
0 1 2 3 9 14 17 18 25 26 28 30 33 34 35 36 37 39 41 44 47
0 2 3 4 9 12 14 16 17 18 19 20 25 27 28 29 31 32 33 38 41
6 7 8 9 11 13 14 16 18 19 23 26 27 29 32 34 35 36 37
0 1 2 3 9 12 14 15 21 24 25 27 29 32 36 37 38 39 43 44 47
0 3 8 10 11 12 13 17 20 21 22 24 25 26 28 29 31 33 34 36 37 39
1 2 4 5 8 9 13 16 19 20 24 26 28 30 35 38 40 43 45 46 47
2 3 4 7 8 9 11 12 15 17 21 24 25 29 30 31 34 37 39 40 42 44 45 46
0 2 3 4 6 8 10 11 14 16 19 23 24 30 32 35 36 39 42 46 47
2 7 10 11 12 19 24 26 30 31 32 34 38 39 45 46
0 3 6 9 11 12 15 17 18 20 21 23 24 25 26 29 30 31 32 33 37 38 39 40 42 43 44 46
0 3 4 5 6 8 9 11 14 15 19 23 24 25 27 30 31 35 36 37 38 39 41 45 47
1 4 6 7 8 13 14 16 19 22 24 26 30 36 37 38 39 42 43 46 47
3 6 9 14 21 26 30 31 33 37 38 39 41 43 47
2 4 5 6 12 17 19 20 25 27 28 29 31 32 34 37 38 40 42 43 44 47
0 4 8 13 14 15 16 17 18 19 20 21 25 27 29 30 32 33 36 37 38 39 47
0 1 5 6 7 9 10 11 13 14 16 19 20 23 24 26 30 31 33 34 37 39 40 41 42 43 45 46
1 2 3 5 8 10 12 14 15 18 19 21 22 25 27 28 31 32 36 37 38 41 42 46 47
0 3 7 8 11 12 13 20 23 24 26 28 32 33 36 37 40 41 43 44 47
0 7 10 11 14 15 23 26 27 29 30 31 34 37 39 40 43 44
0 3 5 6 7 11 12 13 14 16 19 23 24 28 32 33 36 37 40 42 43 44
2 4 6 7 9 10 15 16 17 18 19 20 21 22 24 25 28 31 33 35 37 38 39 40 41 43
0 1 3 5 7 11 14 16 18 19 20 22 23 25 26 28 30 33 34 35 36 37 39 42 43 44 46
5 6 11 12 13 17 18 19 23 24 26 27 29 33 34 37 38 39 41 42 43
0 6 8 9 10 11 14 19 22 24 25 27 29 30 31 32 35 39 41 47
0 3 4 10 12 14 16 18 23 25 28 31 32 35 39 40 41 43 45
2 5 6 9 10 12 15 17 20 30 31 33 34 37 39 42 44 45 47
3 4 5 6 8 10 12 13 14 17 20 21 24 26 27 29 31 40
0 1 3 4 5 8 10 12 13 14 16 19 20 21 22 23 24 25 26 27 28 29 30 31 32 35 40 42 44 45 47
1 2 3 8 9 11 13 15 18 19 20 21 22 23 24 26 30 32 41 42 44
0 3 4 8 9 10 13 14 16 17 18 19 20 21 22 24 25 28 30 31 32 33 34 35 43 45 46
4 6 7 9 15 16 19 23 25 27 28 29 30 34 36 37 42 44 45 46 47
7 10 11 20 22 25 26 27 30 32 33 34 38 42 43 44 46 47
0 2 3 4 8 16 17 19 21 23 25 26 29 31 32 35 37 38 40 41 43 45 46 47
0 1 2 8 9 13 15 19 21 22 23 25 27 28 29 30 31 32 34 39 41 42 44 45
3 4 5 9 10 13 16 19 23 27 28 29 31 35 37 38 40 41 43 45 47
1 3 5 8 15 16 18 20 25 34 35 37 39 40 42 43 44 46 47
1 2 4 6 7 15 16 17 18 19 21 25 26 31 39 40 41 42 45
0 1 2 5 6 10 13 15 17 20 21 22 23 24 26 27 33 35 37 40 41 42 44 45
